
Gurobi 10.0.1 (linux64) logging started Sun Nov 26 15:37:24 2023

Set parameter LogFile to value "ArtificialInstance/ExperimentV2/S3T4K1/BaSp/gurobi1.txt"
Gurobi Optimizer version 10.0.1 build v10.0.1rc0 (linux64)

CPU model: AMD EPYC 7H12 64-Core Processor, instruction set [SSE2|AVX|AVX2]
Thread count: 128 physical cores, 128 logical processors, using up to 32 threads

Academic license 656792 - for non-commercial use only - registered to b.___@student.vu.nl
Optimize a model with 1500 rows, 2240 columns and 7200 nonzeros
Model fingerprint: 0xfde579d1
Variable types: 0 continuous, 2240 integer (2240 binary)
Coefficient statistics:
  Matrix range     [1e+00, 1e+00]
  Objective range  [1e+00, 2e+01]
  Bounds range     [1e+00, 1e+00]
  RHS range        [1e+00, 1e+00]
Found heuristic solution: objective 641.0328958
Presolve time: 0.01s
Presolved: 1500 rows, 2240 columns, 7200 nonzeros
Variable types: 0 continuous, 2240 integer (2240 binary)

Root relaxation: objective 3.458250e+01, 922 iterations, 0.01 seconds (0.01 work units)

    Nodes    |    Current Node    |     Objective Bounds      |     Work
 Expl Unexpl |  Obj  Depth IntInf | Incumbent    BestBd   Gap | It/Node Time

     0     0   34.58250    0  224  641.03290   34.58250  94.6%     -    0s
H    0     0                     264.4065007   34.58250  86.9%     -    0s
H    0     0                     257.5132783   34.58250  86.6%     -    0s
H    0     0                     197.8033375   34.58250  82.5%     -    0s
H    0     0                      69.1650053   34.58250  50.0%     -    0s
H    0     0                      59.7287150   38.38074  35.7%     -    0s
H    0     0                      51.4746057   38.63070  25.0%     -    0s
     0     0   38.63070    0  288   51.47461   38.63070  25.0%     -    0s
H    0     0                      50.3774240   41.75273  17.1%     -    0s
     0     0   41.75273    0  287   50.37742   41.75273  17.1%     -    0s
H    0     0                      47.7027189   41.97843  12.0%     -    0s
     0     0   41.97843    0  385   47.70272   41.97843  12.0%     -    0s
     0     0   42.09178    0  379   47.70272   42.09178  11.8%     -    0s
     0     0   42.10047    0  379   47.70272   42.10047  11.7%     -    0s
     0     0   44.05639    0  355   47.70272   44.05639  7.64%     -    0s
     0     0   44.35554    0  400   47.70272   44.35554  7.02%     -    0s
     0     0   44.88498    0  409   47.70272   44.88498  5.91%     -    0s
     0     0   45.15201    0  409   47.70272   45.15201  5.35%     -    0s
     0     0   47.70272    0  438   47.70272   47.70272  0.00%     -    0s

Cutting planes:
  Gomory: 12
  MIR: 1
  Zero half: 58
  RLT: 20

Explored 1 nodes (4149 simplex iterations) in 0.54 seconds (0.31 work units)
Thread count was 32 (of 128 available processors)

Solution count 9: 47.7027 50.3774 51.4746 ... 641.033

Optimal solution found (tolerance 1.00e-04)
Best objective 4.770271886053e+01, best bound 4.770271886053e+01, gap 0.0000%
